
  22   10
  10   10   10   10   10   10   10   10   10   10

   0   0   0   0   0   0   0   0   0   0   0   4 2 5 6 10 
   1  10  10  10  10  10  10  10  10  10  10   2 21 3 
   8  10  10  10  10  10  10  10  10  10  10   1 4 
   5  10  10  10  10  10  10  10  10  10  10   2 20 7 
   9  10  10  10  10  10  10  10  10  10  10   3 20 19 8 
  10  10  10  10  10  10  10  10  10  10  10   3 20 19 8 
   2  10  10  10  10  10  10  10  10  10  10   2 19 8 
   8  10  10  10  10  10  10  10  10  10  10   1 9 
   6  10  10  10  10  10  10  10  10  10  10   3 18 17 11 
   8  10  10  10  10  10  10  10  10  10  10   5 21 17 16 15 12 
   2  10  10  10  10  10  10  10  10  10  10   3 16 15 12 
   4  10  10  10  10  10  10  10  10  10  10   1 13 
   2  10  10  10  10  10  10  10  10  10  10   1 14 
   3  10  10  10  10  10  10  10  10  10  10   1 22
  10  10  10  10  10  10  10  10  10  10  10   1 22
  10  10  10  10  10  10  10  10  10  10  10   1 22
  10  10  10  10  10  10  10  10  10  10  10   1 22
   6  10  10  10  10  10  10  10  10  10  10   1 22
   1  10  10  10  10  10  10  10  10  10  10   1 22
   3  10  10  10  10  10  10  10  10  10  10   1 22
   7  10  10  10  10  10  10  10  10  10  10   1 22
   0   0   0   0   0   0   0   0   0   0   0   0 
